REM Best SHELXD solution:   CC 32.15   CC(weak) 14.33   CFOM  46.48
REM
TITL test_fa.ins SAD in P1
CELL 0.98000 53.21 90.16 103.54 67.36 83.99 77.13
LATT -1
SFAC S
UNIT 32
S001   1  0.994202  0.000275  0.000536   1.0000  0.2
S002   1  0.811470  0.206505  0.214847   0.7149  0.2
S003   1  0.818420 -0.273193  0.393801   0.6970  0.2
S004   1  0.706322 -0.371048  0.732559   0.6127  0.2
S005   1  1.167809 -0.034935  0.515218   0.5808  0.2
S006   1  0.936653  0.279251  0.552195   0.4560  0.2
S007   1  1.053360  0.080971  0.449858   0.4532  0.2
S008   1  0.948143 -0.346054  0.299005   0.4489  0.2
S009   1  0.909348  0.302811  0.672557   0.4251  0.2
S010   1  0.918343  0.309151  0.419345   0.4247  0.2
S011   1  0.779327  0.312805  0.344235   0.4103  0.2
S012   1  1.123634  0.129860  0.252084   0.3800  0.2
S013   1  0.984184  0.264000  0.824762   0.3757  0.2
S014   1  0.647652 -0.324417  0.849270   0.3752  0.2
S015   1  1.200867 -0.066330  0.350452   0.3730  0.2
S016   1  0.654907 -0.153137  0.832914   0.3659  0.2
S017   1  1.245277  0.406898  0.065748   0.3606  0.2
S018   1  1.216812 -0.046570  0.746631   0.3572  0.2
S019   1  1.056427 -0.446510  0.267847   0.3547  0.2
S020   1  0.898369  0.346535  0.365317   0.3541  0.2
S021   1  1.165459 -0.010262  0.618791   0.3485  0.2
S022   1  0.721718  0.246742  0.416069   0.3446  0.2
S023   1  1.313286  0.205048  0.104526   0.3409  0.2
S024   1  1.022423 -0.228836  0.085003   0.3389  0.2
S025   1  0.628822  0.081627  0.651466   0.3386  0.2
S026   1  1.311485  0.201447  0.000471   0.3367  0.2
S027   1  0.874947 -0.366959  0.203450   0.3307  0.2
S028   1  1.103836  0.188538  0.907170   0.3249  0.2
S029   1  1.063225 -0.481651  0.169397   0.3236  0.2
S030   1  0.787964 -0.177101  0.085040   0.3204  0.2
S031   1  1.451103 -0.065834  0.551815   0.3090  0.2
S032   1  0.686386 -0.259598  0.817036   0.3067  0.2
S033   1  0.820847 -0.332199  0.283636   0.3059  0.2
S034   1  1.175629  0.035667  0.345960   0.2991  0.2
S035   1  1.255127 -0.081970  0.801688   0.2853  0.2
S036   1  0.974770 -0.064156  0.827753   0.2847  0.2
S037   1  1.562462  0.031830  0.014867   0.2805  0.2
S038   1  0.610481 -0.275566  0.921866   0.2622  0.2
S039   1  0.880043  0.316574  0.828794   0.2615  0.2
S040   1  1.067566  0.418045  0.567645   0.2554  0.2
S041   1  0.725510 -0.142822  0.725674   0.2392  0.2
S042   1  0.810577  0.474274  0.396506   0.2361  0.2
S043   1  0.934868  0.423752  0.254327   0.2347  0.2
S044   1  1.013115  0.017059 -0.102456   0.1806  0.2
S045   1  0.784294 -0.445061  0.159757   0.1774  0.2
S046   1  0.934319  0.308563  0.296245   0.1712  0.2
S047   1  1.232674 -0.130890  0.549710   0.1670  0.2
S048   1  1.208290 -0.204109  0.075798   0.1526  0.2
S049   1  0.898895  0.430206  0.630618   0.1418  0.2
S050   1  1.346519 -0.006378  0.082510   0.1303  0.2
S051   1  1.065887  0.048508 -0.032484   0.1111  0.2
S052   1  0.870918  0.172531  0.267268   0.1110  0.2
S053   1  1.055450 -0.046783  0.049923   0.0877  0.2
HKLF 3
END 
