REM Best SHELXD solution:   CC 15.64   CC(weak)  5.69   CFOM  21.32
REM
TITL bar_fa.ins SAD in P21
CELL 0.98000 69.83 40.27 80.76 90.00 104.30 90.00
LATT -1
SYMM -X, 1/2+Y, -Z
SFAC I
UNIT 64
I001   1 0.458937 0.597119 0.522044   1.0000  0.2
I002   1 0.434414 0.707499 0.470088   0.8277  0.2
I003   1 0.372512 0.611175 0.483390   0.6564  0.2
I004   1 0.567735 0.353638 0.491134   0.6396  0.2
I005   1 0.543958 0.497666 0.477180   0.6052  0.2
I006   1 0.505576 0.390564 0.426386   0.5551  0.2
I007   1 0.465920 0.498709 0.474752   0.5411  0.2
I008   1 0.506827 0.560616 0.483352   0.5014  0.2
HKLF 3
END 
